Medium-instances_NetworkFacilityLocation/2023-03-27_20hr-25min-09sec/Nodes20_Arcs25_LocNodes15/Formulation-1Instance-3.lp
\ Model LocPrice
\ LP format - for model browsing. Use MPS format to capture full model detail.
Maximize
  - 191 x[1] - 161 x[2] - 166 x[3] - 188 x[4] - 192 x[7] - 199 x[8]
   - 191 x[9] - 190 x[11] - 186 x[12] - 192 x[13] - 178 x[14] - 189 x[15]
   - 162 x[17] - 172 x[18] - 189 x[20] - 4.156909985198042 Q[1]
   - 3.901471133515129 Q[2] - 3.542048835212507 Q[3]
   - 4.729206293235962 Q[4] - 3.137311331837066 Q[7]
   - 4.633468919041453 Q[8] - 4.763669997758385 Q[9]
   - 3.847032785630517 Q[11] - 4.66645862825373 Q[12]
   - 3.682033426200956 Q[13] - 4.039583013890578 Q[14]
   - 4.098412898650966 Q[15] - 3.385754365262137 Q[17]
   - 3.666433772713964 Q[18] - 3.555049118905311 Q[20] + [ 2 pi[1] * Q[1]
   + 2 pi[2] * Q[2] + 2 pi[3] * Q[3] + 2 pi[4] * Q[4] + 2 pi[7] * Q[7]
   + 2 pi[8] * Q[8] + 2 pi[9] * Q[9] + 2 pi[11] * Q[11] + 2 pi[12] * Q[12]
   + 2 pi[13] * Q[13] + 2 pi[14] * Q[14] + 2 pi[15] * Q[15]
   + 2 pi[17] * Q[17] + 2 pi[18] * Q[18] + 2 pi[20] * Q[20] ] / 2 
Subject To
 R0: Q[1] + Q[2] + Q[3] + Q[4] + Q[7] + Q[8] + Q[9] + Q[11] + Q[12] + Q[13]
   + Q[14] + Q[15] + Q[17] + Q[18] + Q[20] <= 1312
 R1: - 133 x[1] + Q[1] <= 0
 R2: - 108 x[2] + Q[2] <= 0
 R3: - 114 x[3] + Q[3] <= 0
 R4: - 148 x[4] + Q[4] <= 0
 R5: - 145 x[7] + Q[7] <= 0
 R6: - 135 x[8] + Q[8] <= 0
 R7: - 143 x[9] + Q[9] <= 0
 R8: - 142 x[11] + Q[11] <= 0
 R9: - 157 x[12] + Q[12] <= 0
 R10: - 162 x[13] + Q[13] <= 0
 R11: - 137 x[14] + Q[14] <= 0
 R12: - 175 x[15] + Q[15] <= 0
 R13: - 163 x[17] + Q[17] <= 0
 R14: - 148 x[18] + Q[18] <= 0
 R15: - 111 x[20] + Q[20] <= 0
 node[1]: - Q[1] - f[2,1] - f[19,1] - f[4,1] = 0
 node[2]: - Q[2] + f[2,1] - f[3,2] - f[5,2] - f[6,2] - f[10,2] - f[13,2]
   - f[14,2] = 0
 node[13]: - Q[13] + f[13,2] = 0
 node[8]: - Q[8] + f[8,6] - f[17,8] + f[8,15] - S[8] = 0
 node[14]: - Q[14] + f[14,2] - S[14] = 0
 node[15]: - Q[15] + f[15,6] - f[18,15] - f[8,15] - S[15] = 0
 node[18]: - Q[18] + f[18,15] - S[18] = 0
 node[20]: - Q[20] + f[20,9] + f[20,4] - S[20] = 0
 node[17]: - Q[17] + f[17,7] + f[17,19] + f[17,8] + D[17] = 0
 node[11]: - Q[11] + f[11,9] - f[16,11] + D[11] = 0
 node[12]: - Q[12] + f[12,6] + D[12] = 0
 node[9]: - Q[9] + f[9,5] - f[11,9] - f[20,9] + D[9] - S[9] = 0
 node[3]: - Q[3] + f[3,2] - f[4,3] + D[3] - S[3] = 0
 node[4]: - Q[4] + f[4,3] - f[20,4] - f[7,4] + f[4,1] + D[4] - S[4] = 0
 node[7]: - Q[7] + f[7,5] - f[17,7] + f[7,4] + D[7] - S[7] = 0
 node[19]: f[19,1] - f[17,19] = 0
 node[6]: f[6,2] - f[8,6] - f[12,6] - f[15,6] = 0
 node[16]: f[16,11] + D[16] = 0
 node[10]: f[10,2] + D[10] = 0
 node[5]: f[5,2] - f[7,5] - f[9,5] + D[5] - S[5] = 0
 Cost_Flow[2,1]: - pi[1] + pi[2] + 0.9151178647886558 f[2,1] - mu_f[2,1]
   = -0.1329345010121982
 Cost_Flow[3,2]: - pi[2] + pi[3] + 1.349691243359227 f[3,2] - mu_f[3,2]
   = -1.877768247780428
 Cost_Flow[4,3]: - pi[3] + pi[4] + 1.367662437810518 f[4,3] - mu_f[4,3]
   = -0.7495868948370855
 Cost_Flow[5,2]: - pi[2] + pi[5] + 1.047226235887558 f[5,2] - mu_f[5,2]
   = -1.281768724859169
 Cost_Flow[6,2]: - pi[2] + pi[6] + 0.9287451390228469 f[6,2] - mu_f[6,2]
   = -2.371540491785302
 Cost_Flow[7,5]: - pi[5] + pi[7] + 1.017258720029617 f[7,5] - mu_f[7,5]
   = -1.594805067591244
 Cost_Flow[8,6]: - pi[6] + pi[8] + 0.6492085729365653 f[8,6] - mu_f[8,6]
   = -0.0391122962850788
 Cost_Flow[9,5]: - pi[5] + pi[9] + 0.3452014091910012 f[9,5] - mu_f[9,5]
   = -0.0596251610859079
 Cost_Flow[10,2]: - pi[2] + pi[10] + 0.5986669007274954 f[10,2]
   - mu_f[10,2] = -1.171254091556809
 Cost_Flow[11,9]: - pi[9] + pi[11] + 1.297134557180353 f[11,9] - mu_f[11,9]
   = -2.685906085631167
 Cost_Flow[12,6]: - pi[6] + pi[12] + 0.1294318156859096 f[12,6]
   - mu_f[12,6] = -0.6946611846063032
 Cost_Flow[13,2]: - pi[2] + pi[13] + 1.267416867771784 f[13,2] - mu_f[13,2]
   = -1.333056388635782
 Cost_Flow[14,2]: - pi[2] + pi[14] + 0.5580030386702981 f[14,2]
   - mu_f[14,2] = -0.4322190168857668
 Cost_Flow[15,6]: - pi[6] + pi[15] + 0.3719198475133678 f[15,6]
   - mu_f[15,6] = -2.42905782266375
 Cost_Flow[16,11]: - pi[11] + pi[16] + 0.9780962494296361 f[16,11]
   - mu_f[16,11] = -1.146485627993633
 Cost_Flow[17,7]: - pi[7] + pi[17] + 0.7073701630994309 f[17,7]
   - mu_f[17,7] = -1.070776718812775
 Cost_Flow[18,15]: - pi[15] + pi[18] + 0.1924040397129729 f[18,15]
   - mu_f[18,15] = -0.7705613975421435
 Cost_Flow[19,1]: - pi[1] + pi[19] + 1.41912200992665 f[19,1] - mu_f[19,1]
   = -2.507621626558983
 Cost_Flow[20,9]: - pi[9] + pi[20] + 1.583241200130128 f[20,9] - mu_f[20,9]
   = -1.309647112247035
 Cost_Flow[17,19]: pi[17] - pi[19] + 0.3883923673288943 f[17,19]
   - mu_f[17,19] = -2.33598635081117
 Cost_Flow[20,4]: - pi[4] + pi[20] + 1.813777131225959 f[20,4] - mu_f[20,4]
   = -0.3453469030627463
 Cost_Flow[7,4]: - pi[4] + pi[7] + 0.2348420935175441 f[7,4] - mu_f[7,4]
   = -2.046181106513457
 Cost_Flow[4,1]: - pi[1] + pi[4] + 0.2717337512574167 f[4,1] - mu_f[4,1]
   = -2.566978165646781
 Cost_Flow[17,8]: - pi[8] + pi[17] + 0.7720084456645357 f[17,8]
   - mu_f[17,8] = -1.445224713407508
 Cost_Flow[8,15]: pi[8] - pi[15] + 1.928015768641639 f[8,15] - mu_f[8,15]
   = -1.235911585786559
 Cost_Demand[3]: pi[3] + 3.43493433682509 D[3] - mu_D[3] = 1447
 Cost_Demand[4]: pi[4] + 3.183159759788955 D[4] - mu_D[4] = 1410
 Cost_Demand[5]: pi[5] + 3.786713507311129 D[5] - mu_D[5] = 1448
 Cost_Demand[7]: pi[7] + 3.945058353647221 D[7] - mu_D[7] = 1465
 Cost_Demand[9]: pi[9] + 3.516305070255855 D[9] - mu_D[9] = 1387
 Cost_Demand[10]: pi[10] + 3.280188493873545 D[10] - mu_D[10] = 1497
 Cost_Demand[11]: pi[11] + 3.909580029721423 D[11] - mu_D[11] = 1471
 Cost_Demand[12]: pi[12] + 3.866199523835189 D[12] - mu_D[12] = 1389
 Cost_Demand[16]: pi[16] + 3.489133573024144 D[16] - mu_D[16] = 1495
 Cost_Demand[17]: pi[17] + 3.870249983820314 D[17] - mu_D[17] = 1371
 Cost_Supply[3]: - pi[3] + 0.9758167207869928 S[3] - mu_S[3]
   = -1.049745082252061
 Cost_Supply[4]: - pi[4] + 0.9534266733001742 S[4] - mu_S[4]
   = -1.803750288514448
 Cost_Supply[5]: - pi[5] + 0.3994915609400469 S[5] - mu_S[5]
   = -1.253503744691811
 Cost_Supply[7]: - pi[7] + 0.3728713724573951 S[7] - mu_S[7]
   = -1.182027498753303
 Cost_Supply[8]: - pi[8] + 0.4289782113366379 S[8] - mu_S[8]
   = -1.233690290868447
 Cost_Supply[9]: - pi[9] + 0.1108531185486028 S[9] - mu_S[9]
   = -1.54358755340956
 Cost_Supply[14]: - pi[14] + 0.8301568948315573 S[14] - mu_S[14]
   = -1.962872121688738
 Cost_Supply[15]: - pi[15] + 0.8884574800189987 S[15] - mu_S[15]
   = -1.284240665409692
 Cost_Supply[18]: - pi[18] + 0.3755817196665268 S[18] - mu_S[18]
   = -1.456395216876542
 Cost_Supply[20]: - pi[20] + 0.7252873265440309 S[20] - mu_S[20]
   = -1.612954035648121
Bounds
Binaries
 x[1] x[2] x[3] x[4] x[7] x[8] x[9] x[11] x[12] x[13] x[14] x[15] x[17]
 x[18] x[20]
SOS
 s0:  S1 :: f[2,1]:1 mu_f[2,1]:2
 s1:  S1 :: f[3,2]:1 mu_f[3,2]:2
 s2:  S1 :: f[4,3]:1 mu_f[4,3]:2
 s3:  S1 :: f[5,2]:1 mu_f[5,2]:2
 s4:  S1 :: f[6,2]:1 mu_f[6,2]:2
 s5:  S1 :: f[7,5]:1 mu_f[7,5]:2
 s6:  S1 :: f[8,6]:1 mu_f[8,6]:2
 s7:  S1 :: f[9,5]:1 mu_f[9,5]:2
 s8:  S1 :: f[10,2]:1 mu_f[10,2]:2
 s9:  S1 :: f[11,9]:1 mu_f[11,9]:2
 s10:  S1 :: f[12,6]:1 mu_f[12,6]:2
 s11:  S1 :: f[13,2]:1 mu_f[13,2]:2
 s12:  S1 :: f[14,2]:1 mu_f[14,2]:2
 s13:  S1 :: f[15,6]:1 mu_f[15,6]:2
 s14:  S1 :: f[16,11]:1 mu_f[16,11]:2
 s15:  S1 :: f[17,7]:1 mu_f[17,7]:2
 s16:  S1 :: f[18,15]:1 mu_f[18,15]:2
 s17:  S1 :: f[19,1]:1 mu_f[19,1]:2
 s18:  S1 :: f[20,9]:1 mu_f[20,9]:2
 s19:  S1 :: f[17,19]:1 mu_f[17,19]:2
 s20:  S1 :: f[20,4]:1 mu_f[20,4]:2
 s21:  S1 :: f[7,4]:1 mu_f[7,4]:2
 s22:  S1 :: f[4,1]:1 mu_f[4,1]:2
 s23:  S1 :: f[17,8]:1 mu_f[17,8]:2
 s24:  S1 :: f[8,15]:1 mu_f[8,15]:2
 s25:  S1 :: D[3]:1 mu_D[3]:2
 s26:  S1 :: D[4]:1 mu_D[4]:2
 s27:  S1 :: D[5]:1 mu_D[5]:2
 s28:  S1 :: D[7]:1 mu_D[7]:2
 s29:  S1 :: D[9]:1 mu_D[9]:2
 s30:  S1 :: D[10]:1 mu_D[10]:2
 s31:  S1 :: D[11]:1 mu_D[11]:2
 s32:  S1 :: D[12]:1 mu_D[12]:2
 s33:  S1 :: D[16]:1 mu_D[16]:2
 s34:  S1 :: D[17]:1 mu_D[17]:2
 s35:  S1 :: S[3]:1 mu_S[3]:2
 s36:  S1 :: S[4]:1 mu_S[4]:2
 s37:  S1 :: S[5]:1 mu_S[5]:2
 s38:  S1 :: S[7]:1 mu_S[7]:2
 s39:  S1 :: S[8]:1 mu_S[8]:2
 s40:  S1 :: S[9]:1 mu_S[9]:2
 s41:  S1 :: S[14]:1 mu_S[14]:2
 s42:  S1 :: S[15]:1 mu_S[15]:2
 s43:  S1 :: S[18]:1 mu_S[18]:2
 s44:  S1 :: S[20]:1 mu_S[20]:2
End
