Medium-instances_NetworkFacilityLocation/2023-03-27_20hr-25min-09sec/Nodes20_Arcs25_LocNodes15/Formulation-1Instance-3.log

Gurobi 9.5.2 (win64) logging started Mon Mar 27 20:44:17 2023

Set parameter LogFile to value "2023-03-27_20hr-25min-09sec/Nodes20_Arcs25_LocNodes15/Formulation-1Instance-3.log"
Set parameter TimeLimit to value 600
Set parameter IntFeasTol to value 1e-09
Set parameter DualReductions to value 0
Set parameter NonConvex to value 2
Gurobi Optimizer version 9.5.2 build v9.5.2rc0 (win64)
Thread count: 4 physical cores, 8 logical processors, using up to 8 threads
Optimize a model with 81 rows, 140 columns and 290 nonzeros
Model fingerprint: 0x90abfd07
Model has 15 quadratic objective terms
Model has 45 SOS constraints
Variable types: 125 continuous, 15 integer (15 binary)
Coefficient statistics:
  Matrix range     [1e-01, 2e+02]
  Objective range  [3e+00, 2e+02]
  QObjective range [2e+00, 2e+00]
  Bounds range     [1e+00, 1e+00]
  RHS range        [4e-02, 1e+03]
Presolve removed 30 rows and 41 columns
Presolve time: 0.00s
Presolved: 68 rows, 109 columns, 208 nonzeros
Presolved model has 22 SOS constraint(s)
Presolved model has 8 bilinear constraint(s)
Variable types: 94 continuous, 15 integer (15 binary)

Root relaxation: unbounded, 36 iterations, 0.00 seconds (0.00 work units)

    Nodes    |    Current Node    |     Objective Bounds      |     Work
 Expl Unexpl |  Obj  Depth IntInf | Incumbent    BestBd   Gap | It/Node Time

     0     0  postponed    0               -          -      -     -    0s
     0     0  postponed    0               -          -      -     -    0s
Exploring 100 nodes in MinRel heuristic
H    0     0                    -5143.589539          -      -     -    0s
Feasible solution found by MinRel heuristic at node 112
     0     2  postponed    0      -5143.5895          -      -     -    0s
H  464    84                    267966.80053          -      -   8.5    0s
*  472    84              19    289698.36005          -      -   8.4    0s
*  473    84              18    292942.89146          -      -   8.4    0s
*  484    84              25    301700.83480          -      -   8.3    0s
*  488    84              26    302632.34698          -      -   8.2    0s
H  489    84                    309648.39860          -      -   8.2    0s
*  887    98              30    310455.70237          -      -   7.5    0s
H  972    98                    310455.73065          -      -   7.5    0s
* 1386   227              28    432297.45915          -      -   6.9    0s
* 1391   227              30    432297.75721          -      -   6.8    0s
* 1394   227              32    432297.77134          -      -   6.8    0s
* 1396   227              33    432297.77208          -      -   6.8    0s
* 1411   227              25    433743.91687          -      -   6.8    0s
H 1412   227                    433849.25040          -      -   6.8    0s
H 1430   227                    433849.44627          -      -   6.7    0s
H 1595   272                    433849.50045          -      -   6.2    0s
* 1816   272              50    433849.50055          -      -   5.9    0s
H 2114   128                    433849.50074          -      -   5.4    0s

Explored 2306 nodes (11533 simplex iterations) in 0.22 seconds (0.07 work units)
Thread count was 8 (of 8 available processors)

Solution count 10: 433850 433850 433850 ... 432297

Optimal solution found (tolerance 1.00e-04)
Best objective 4.338495007419e+05, best bound 4.338505553100e+05, gap 0.0002%

User-callback calls 4922, time in user-callback 0.02 sec
